NAME : pr10.tsp
COMMENT : 10-city problem
TYPE : TSP 
DIMENSION : 10
EDGE_WEIGHT_TYPE : CEIL_2D
NODE_COORD_SECTION 
1  9.517300e+04 3.566200e+04 
2  1.336700e+04 5.121900e+04 
3  5.555500e+04 3.369500e+04 
4  7.602000e+03 4.296500e+04 
5  1.171000e+04 4.498100e+04 
6  4.545400e+04 4.754000e+04 
7  1.846600e+04 3.843000e+04 
8  9.078000e+03 7.559700e+04 
9  4.839400e+04 4.266900e+04 
10 5.051600e+04 4.092700e+04 
EOF 
